; benchmark generated from python API
(set-info :status unknown)
(declare-datatypes ((RealState 0)) (((RMk1 (rval1 Real)) (RMk2 (rval2 Real)))))
 (assert
 (forall ((|v11:0| Real) )(exists ((|v10:1_st| RealState) (val!3252 Real) )(forall ((|v9:2| Real) )(exists ((|v8:3_st| RealState) (val!3253 Real) )(forall ((|v7:4| Real) )(exists ((|v6:5_st| RealState) (val!3254 Real) )(forall ((|v5:6| Real) )(exists ((|v4:7_st| RealState) (val!3255 Real) )(forall ((|v3:8| Real) )(exists ((|v2:9_st| RealState) (val!3256 Real) )(forall ((|v1:10| Real) )(exists ((|v0:11_st| RealState) (val!3257 Real) )(let ((?x3102 (* 5.0 |v11:0|)))
 (let ((?x862 (* 5.0 |v7:4|)))
 (let ((?x541 (+ (+ (+ (* (- 14.0) |v3:8|) (* (- 10.0) (rval2 |v8:3_st|))) ?x862) ?x3102)))
 (let ((?x3093 (- 17.0)))
 (let ((?x2914 (* 18.0 |v1:10|)))
 (let ((?x503 (+ (+ (* (- 3.0) |v3:8|) (* (- 16.0) |v5:6|)) (* (- 4.0) (rval2 |v6:5_st|)))))
 (let ((?x32 (- 4.0)))
 (let ((?x537 (+ (+ (* 10.0 (rval2 |v6:5_st|)) (* 16.0 (rval2 |v10:1_st|))) (* (- 13.0) (rval2 |v2:9_st|)))))
 (let ((?x1324 (rval2 |v0:11_st|)))
 (let ((?x654 (* 17.0 ?x1324)))
 (let ((?x1167 (+ (+ (* (- 16.0) |v5:6|) (* 13.0 (rval2 |v2:9_st|))) (* (- 6.0) |v1:10|))))
 (let (($x2955 (and (<= (+ ?x1167 ?x654) ?x32) (<= (+ ?x537 (* 16.0 (rval2 |v2:9_st|))) ?x32))))
 (let ((?x1176 (- 15.0)))
 (let ((?x1898 (rval2 |v4:7_st|)))
 (let ((?x689 (* 9.0 ?x1898)))
 (let ((?x454 (+ (+ (+ (* (- 7.0) |v11:0|) (* (- 10.0) (rval2 |v6:5_st|))) ?x689) (* (- 16.0) (rval2 |v6:5_st|)))))
 (let ((?x1576 (- 18.0)))
 (let ((?x2591 (+ (+ (* (- 11.0) (rval2 |v8:3_st|)) (* (- 9.0) (rval2 |v10:1_st|))) (* 20.0 |v7:4|))))
 (let ((?x1273 (* 19.0 |v7:4|)))
 (let ((?x1432 (+ (+ (+ (* 12.0 (rval2 |v10:1_st|)) |v5:6|) (* (- 7.0) (rval2 |v10:1_st|))) ?x1273)))
 (let (($x1376 (and (and (<= ?x1432 9.0) (<= (+ ?x2591 (* 7.0 |v7:4|)) ?x1576)) (<= ?x454 ?x1176))))
 (let ((?x1813 (* 13.0 ?x1324)))
 (let ((?x2920 (+ (+ (+ (* 11.0 |v11:0|) (* (- 7.0) (rval2 |v8:3_st|))) (* 2.0 |v1:10|)) ?x1813)))
 (let ((?x2458 (* 5.0 |v3:8|)))
 (let ((?x584 (+ (+ (+ (* (- 13.0) ?x1898) (* 3.0 |v5:6|)) (* 18.0 |v3:8|)) ?x2458)))
 (let ((?x1525 (- 16.0)))
 (let ((?x2883 (* ?x1525 |v7:4|)))
 (let ((?x1570 (+ (+ (+ (* 11.0 ?x1898) (* ?x1576 ?x1324)) (* 20.0 (rval2 |v6:5_st|))) ?x2883)))
 (let ((?x1537 (+ (+ (+ (* (- 11.0) (rval2 |v10:1_st|)) (* ?x1176 |v5:6|)) (* 12.0 |v7:4|)) (* (- 19.0) ?x1898))))
 (let (($x1887 (or (and (<= ?x1537 ?x1176) (<= ?x1570 ?x3093)) (and (<= ?x584 16.0) (<= ?x2920 14.0)))))
 (let (($x1998 (<= (+ (+ (+ |v9:2| (* ?x1525 (rval2 |v10:1_st|))) |v11:0|) (* 13.0 ?x1898)) 12.0)))
 (let ((?x1059 (* 4.0 |v9:2|)))
 (let ((?x746 (+ (+ (+ (* ?x1576 |v5:6|) (* 0.0 (rval2 |v6:5_st|))) (* ?x3093 ?x1324)) ?x1059)))
 (let (($x191 (<= (+ (+ (+ |v1:10| (* 9.0 ?x1324)) ?x1324) (* 17.0 (rval2 |v6:5_st|))) 12.0)))
 (let ((?x2571 (+ (+ (+ (* (- 10.0) ?x1898) (* 16.0 (rval2 |v10:1_st|))) (* 4.0 |v7:4|)) (* 13.0 (rval2 |v10:1_st|)))))
 (let (($x287 (or (and (or (<= ?x2571 16.0) $x191) (or (<= ?x746 13.0) $x1998)) $x1887)))
 (let (($x981 (or $x287 (and $x1376 (and $x2955 (or (<= (+ ?x503 ?x2914) ?x3093) (<= ?x541 19.0)))))))
 (let ((?x531 (- 8.0)))
 (let ((?x1861 (* 19.0 |v3:8|)))
 (let ((?x1974 (rval2 |v8:3_st|)))
 (let ((?x653 (* 9.0 ?x1974)))
 (let (($x807 (<= (+ (+ (+ (* 5.0 ?x1974) (* 14.0 (rval2 |v10:1_st|))) ?x653) ?x1861) ?x531)))
 (let ((?x1430 (* 12.0 ?x1324)))
 (let ((?x276 (+ (+ (+ (* 13.0 (rval2 |v6:5_st|)) (* 12.0 ?x1898)) (* (- 19.0) |v3:8|)) ?x1430)))
 (let ((?x1494 (- 6.0)))
 (let ((?x2538 (* ?x1494 ?x1898)))
 (let ((?x2900 (rval2 |v10:1_st|)))
 (let ((?x1064 (* 15.0 ?x2900)))
 (let (($x1030 (<= (+ (+ (+ (* 4.0 |v1:10|) (* 2.0 (rval2 |v2:9_st|))) ?x1064) ?x2538) 11.0)))
 (let (($x266 (<= (+ (+ (+ (* ?x1176 |v5:6|) (* ?x1176 |v1:10|)) (* 4.0 |v3:8|)) ?x1064) ?x531)))
 (let ((?x2171 (- 7.0)))
 (let ((?x1948 (- 13.0)))
 (let ((?x2136 (* ?x1948 |v11:0|)))
 (let ((?x1713 (- 3.0)))
 (let ((?x2455 (* ?x1713 |v5:6|)))
 (let (($x1455 (<= (+ (+ (+ (* (- 14.0) |v5:6|) (* (- 12.0) |v11:0|)) ?x2455) ?x2136) ?x2171)))
 (let ((?x936 (- 9.0)))
 (let ((?x1096 (+ (+ (+ (* 0.0 |v3:8|) (* ?x1576 ?x2900)) (* 11.0 (rval2 |v6:5_st|))) (* ?x1713 |v7:4|))))
 (let (($x2031 (and (and (and (<= ?x1096 ?x936) $x1455) $x266) (and $x1030 (or (<= ?x276 ?x1576) $x807)))))
 (let ((?x3115 (+ (+ (+ (* 14.0 |v7:4|) (* 0.0 |v3:8|)) (* 5.0 (rval2 |v2:9_st|))) |v7:4|)))
 (let ((?x1366 (- 20.0)))
 (let ((?x281 (+ (+ (+ (* 5.0 |v1:10|) (* 18.0 |v7:4|)) (* (- 12.0) ?x1898)) (* (- 5.0) ?x1974))))
 (let ((?x2465 (+ (+ (+ (* 7.0 ?x1974) (* ?x2171 (rval2 |v6:5_st|))) (* (- 10.0) |v1:10|)) (* 18.0 (rval2 |v6:5_st|)))))
 (let ((?x1456 (+ (+ (+ (* 17.0 ?x1898) (* ?x32 |v9:2|)) (* (- 2.0) |v5:6|)) (* 8.0 ?x1324))))
 (let (($x406 (or (and (<= ?x1456 18.0) (<= ?x2465 ?x1713)) (or (<= ?x281 ?x1366) (<= ?x3115 10.0)))))
 (let ((?x1986 (* 8.0 |v11:0|)))
 (let (($x2303 (<= (+ (+ (+ (* ?x1366 ?x2900) (* ?x1576 ?x1974)) (* ?x2171 |v3:8|)) ?x1986) 9.0)))
 (let ((?x1607 (+ (+ (+ (* 0.0 |v3:8|) (* 15.0 (rval2 |v2:9_st|))) ?x2136) (* 18.0 ?x1974))))
 (let (($x1387 (<= (+ (+ (+ ?x2883 (* 18.0 |v9:2|)) (* ?x2171 |v3:8|)) (* (- 14.0) |v11:0|)) 14.0)))
 (let (($x900 (or (or (and (and $x1387 (or (<= ?x1607 12.0) $x2303)) $x406) $x2031) $x981)))
 (let ((?x2112 (+ (+ (+ ?x653 (* 11.0 ?x1324)) (* (- 2.0) |v3:8|)) (* (- 10.0) ?x1324))))
 (let (($x228 (<= (+ (+ (+ (* 16.0 |v3:8|) (* 18.0 |v11:0|)) ?x1059) (* 10.0 ?x1974)) ?x2171)))
 (let ((?x744 (- 12.0)))
 (let ((?x1236 (- 11.0)))
 (let ((?x772 (* ?x1236 ?x2900)))
 (let (($x117 (<= (+ (+ (+ (* ?x1948 ?x1324) (* 6.0 |v9:2|)) (* ?x744 |v5:6|)) ?x772) ?x744)))
 (let (($x2128 (<= (+ (+ (+ (* 18.0 |v11:0|) ?x2914) (* 20.0 ?x2900)) (* 2.0 |v9:2|)) 7.0)))
 (let ((?x1781 (+ (+ (+ (* 8.0 |v5:6|) |v11:0|) (* ?x1366 (rval2 |v6:5_st|))) (* ?x1236 ?x1324))))
 (let ((?x1297 (+ (+ (+ (* 10.0 |v1:10|) (* ?x3093 |v9:2|)) (* ?x1176 ?x2900)) (* (- 5.0) ?x1324))))
 (let ((?x2266 (* 2.0 ?x2900)))
 (let ((?x747 (+ (+ (+ (* ?x1948 |v3:8|) (* 18.0 ?x1898)) (* 15.0 (rval2 |v6:5_st|))) ?x2266)))
 (let (($x1809 (<= (+ (+ (+ (* ?x1176 ?x1324) (* 5.0 |v5:6|)) ?x2538) (* 6.0 ?x1324)) ?x2171)))
 (let ((?x1637 (+ (+ (+ (* 11.0 (rval2 |v2:9_st|)) (* ?x1366 ?x1974)) (* ?x1576 |v11:0|)) (* ?x1494 ?x2900))))
 (let (($x2010 (and (and (<= ?x1637 4.0) $x1809) (and (<= ?x747 10.0) (<= ?x1297 ?x1576)))))
 (let (($x438 (<= (+ (+ (+ (* (- 1.0) ?x1324) (* ?x1576 |v5:6|)) (* ?x936 |v3:8|)) ?x689) 19.0)))
 (let ((?x1663 (rval2 |v2:9_st|)))
 (let ((?x749 (* 2.0 ?x1663)))
 (let ((?x3107 (+ (+ (+ (* 10.0 (rval2 |v6:5_st|)) (* ?x936 ?x1324)) (* 6.0 ?x1974)) ?x749)))
 (let ((?x498 (- 1.0)))
 (let ((?x2101 (rval2 |v6:5_st|)))
 (let ((?x678 (* 0.0 ?x2101)))
 (let ((?x144 (* 15.0 ?x1324)))
 (let (($x1270 (<= (+ (+ (+ (* 8.0 ?x2900) (* 4.0 |v5:6|)) (* ?x3093 ?x1898)) ?x144) 4.0)))
 (let (($x2279 (or $x1270 (<= (+ (+ (+ (* 6.0 |v7:4|) ?x2455) (* 15.0 ?x1974)) ?x678) ?x498))))
 (let ((?x3082 (- 19.0)))
 (let ((?x3092 (* 13.0 |v7:4|)))
 (let (($x1408 (<= (+ (+ (+ (* ?x1713 ?x2900) (* 18.0 |v11:0|)) (* 19.0 ?x2101)) ?x3092) ?x3082)))
 (let ((?x2278 (+ (+ (+ (* (- 10.0) |v9:2|) (* 6.0 ?x1663)) (* ?x3093 |v5:6|)) (* ?x2171 |v1:10|))))
 (let (($x1339 (and (<= (+ (+ (+ ?x1663 |v7:4|) (* ?x3082 ?x1663)) (* ?x1176 |v7:4|)) ?x1713) (<= ?x2278 11.0))))
 (let (($x2536 (or (or (and $x1339 $x1408) (and $x2279 (or (<= ?x3107 ?x744) $x438))) (or $x2010 (and (and (<= ?x1781 19.0) $x2128) (and $x117 $x228))))))
 (let (($x1423 (not (= |v0:11_st| (RMk1 val!3257)))))
 (let (($x937 (not (= |v2:9_st| (RMk1 val!3256)))))
 (let (($x1277 (not (= |v4:7_st| (RMk1 val!3255)))))
 (let (($x1151 (not (= |v6:5_st| (RMk1 val!3254)))))
 (let (($x1011 (not (= |v8:3_st| (RMk1 val!3253)))))
 (let (($x439 (not (= |v10:1_st| (RMk1 val!3252)))))
 (and $x439 $x1011 $x1151 $x1277 $x937 $x1423 (or (or $x2536 (<= ?x2112 19.0)) $x900)))))))))))))))))))))))))))))))))))))))))))))))))))))))))))))))))))))))))))))))))))))))))))))))))))))))))))))
 )
 )
 )
 )
 )
 )
 )
 )
 )
 )
 )
 )
(check-sat)
